Using license file /home/anupa/gurobi.lic
Academic license - for non-commercial use only

Gurobi Optimizer version 9.0.0 build v9.0.0rc2 (linux64)
Optimize a model with 28 rows, 35 columns and 77 nonzeros
Model fingerprint: 0xbe67691a
Model has 2 general constraints
Variable types: 35 continuous, 0 integer (0 binary)
Coefficient statistics:
  Matrix range     [1e+00, 3e+04]
  Objective range  [1e+00, 1e+00]
  Bounds range     [1e+00, 3e+04]
  RHS range        [1e+00, 5e+01]

---------------------------------------------------------------------------
Multi-objectives: starting optimization with 4 objectives ... 
---------------------------------------------------------------------------

Multi-objectives: applying initial presolve ...
---------------------------------------------------------------------------

Presolve removed 5 rows and 1 columns
Presolve time: 0.00s
Presolved: 23 rows and 34 columns
---------------------------------------------------------------------------

Multi-objectives: optimize objective 1 (tot_mem_cpu) ...
---------------------------------------------------------------------------

Presolve removed 11 rows and 11 columns
Presolve time: 0.00s
Presolved: 12 rows, 23 columns, 42 nonzeros
Presolved model has 2 SOS constraint(s)
Variable types: 20 continuous, 3 integer (3 binary)
Found heuristic solution: objective 24824.601563

Root relaxation: cutoff, 6 iterations, 0.00 seconds

    Nodes    |    Current Node    |     Objective Bounds      |     Work
 Expl Unexpl |  Obj  Depth IntInf | Incumbent    BestBd   Gap | It/Node Time

     0     0     cutoff    0      24824.6016 24824.6016  0.00%     -    0s

Explored 0 nodes (6 simplex iterations) in 0.00 seconds
Thread count was 12 (of 12 available processors)

Solution count 1: 24824.6 

Optimal solution found (tolerance 1.00e-04)
Best objective 2.482460156250e+04, best bound 2.482460156250e+04, gap 0.0000%
---------------------------------------------------------------------------

Multi-objectives: optimize objective 2 (cpu_mem_load) ...
---------------------------------------------------------------------------


Loaded user MIP start with objective 24756.6

Presolve removed 12 rows and 12 columns
Presolve time: 0.00s
Presolved: 12 rows, 22 columns, 43 nonzeros
Presolved model has 2 SOS constraint(s)
Variable types: 19 continuous, 3 integer (3 binary)

Root relaxation: objective 1.241230e+04, 8 iterations, 0.00 seconds

    Nodes    |    Current Node    |     Objective Bounds      |     Work
 Expl Unexpl |  Obj  Depth IntInf | Incumbent    BestBd   Gap | It/Node Time

*    0     0               0    12412.300781 12412.3008  0.00%     -    0s

Explored 0 nodes (8 simplex iterations) in 0.00 seconds
Thread count was 12 (of 12 available processors)

Solution count 2: 12412.3 24756.6 

Optimal solution found (tolerance 1.00e-04)
Best objective 1.241230078125e+04, best bound 1.241230078125e+04, gap 0.0000%
---------------------------------------------------------------------------

Multi-objectives: optimize objective 3 (tot_mem_p4) ...
---------------------------------------------------------------------------


Loaded user MIP start with objective 1152

Presolve removed 21 rows and 29 columns
Presolve time: 0.00s
Presolved: 4 rows, 5 columns, 10 nonzeros
Variable types: 4 continuous, 1 integer (1 binary)

Root relaxation: objective 1.149518e+03, 1 iterations, 0.00 seconds

    Nodes    |    Current Node    |     Objective Bounds      |     Work
 Expl Unexpl |  Obj  Depth IntInf | Incumbent    BestBd   Gap | It/Node Time

*    0     0               0    1149.5175378 1149.51754  0.00%     -    0s

Explored 0 nodes (1 simplex iterations) in 0.00 seconds
Thread count was 12 (of 12 available processors)

Solution count 1: 1149.52 

Optimal solution found (tolerance 1.00e-04)
Best objective 1.149517537844e+03, best bound 1.149517537844e+03, gap 0.0000%
---------------------------------------------------------------------------

Multi-objectives: optimize objective 4 (p4_mem_load) ...
---------------------------------------------------------------------------


Loaded user MIP start with objective 574.759

Presolve removed 21 rows and 29 columns
Presolve time: 0.00s
Presolved: 5 rows, 5 columns, 12 nonzeros
Variable types: 4 continuous, 1 integer (1 binary)

Root relaxation: cutoff, 0 iterations, 0.00 seconds

Explored 0 nodes (0 simplex iterations) in 0.00 seconds
Thread count was 12 (of 12 available processors)

Solution count 1: 574.759 

Optimal solution found (tolerance 1.00e-04)
Best objective 5.747587689219e+02, best bound 5.747587689219e+02, gap 0.0000%

---------------------------------------------------------------------------
Multi-objectives: solved in 0.00 seconds, solution count 3

--------------------------------------------------
Model update took: 3.9577484130859375e-05 seconds
Model optimize took: 0.0038063526153564453 seconds
--------------------------------------------------

Solution quality statistics for model netmon :
  Maximum violation:
    Bound       : 1.81898940e-12 (mem[0,0])
    Constraint  : 3.10029780e-13 (accuracy_0_sk_0[0])
    Integrality : 0.00000000e+00

Sketch (0) (cm: eps0: 7.500000000000001e-05, del0: 0.05, min_mem: 141.578125)
Par: 1, Rows: 3
-0.000    1.000    0.000    0.000    
Total frac: 1.000

Sketch (1) (cm: eps0: 1.25e-06, del0: 0.05, min_mem: 8494.6328125)
Par: 1, Rows: 3
0.487    0.468    0.023    0.023    
Total frac: 1.000

Sketch (2) (cm: eps0: 0.000625, del0: 0.025, min_mem: 16.9921875)
Par: 1, Rows: 4
0.000    1.000    0.000    0.000    
Total frac: 1.000

Device (0) cpu_1:
Rows total: 1.4613394464868799
Mem total: 12413.542012328126

Device (1) cpu_2:
Rows total: 8.40333774872369
Mem total: 12413.542012328126

Device (2) p4_1:
Rows total: 0.06766140239471044
Mem total: 574.7587689218734

Device (3) p4_2:
Rows total: 0.06766140239471044
Mem total: 574.7587689218734
--------------------------------------------------
Changed value of parameter NonConvex to 2
   Prev: -1  Min: -1  Max: 2  Default: -1
Changed value of parameter NonConvex to 2
   Prev: -1  Min: -1  Max: 2  Default: -1

Throughput: 35.0 Mpps, ns per packet: 28.571428571428573
Resources: 107.01276264496228

Sketch (0) (cm: eps0: 7.500000000000001e-05, del0: 0.05, min_mem: 141.578125)
Par: 1, Rows: 3
-0.000    1.000    0.000    0.000    
Total frac: 1.000

Sketch (1) (cm: eps0: 1.25e-06, del0: 0.05, min_mem: 8494.6328125)
Par: 1, Rows: 3
0.487    0.468    0.023    0.023    
Total frac: 1.000

Sketch (2) (cm: eps0: 0.000625, del0: 0.025, min_mem: 16.9921875)
Par: 1, Rows: 4
0.000    1.000    0.000    0.000    
Total frac: 1.000

Device (0) cpu_1:
cores_sketch: 1.0, cores_dpdk: 1.0
Rows total: 1.4613394464868799
Mem total: 12413.542012328126
Throughput: 35.0

Device (1) cpu_2:
cores_sketch: 5.0, cores_dpdk: 1.0
Rows total: 8.40333774872369
Mem total: 12413.542012328126
Throughput: 35.0

Device (2) p4_1:
Rows total: 0.06766140239471044
Mem total: 574.7587689218734
Throughput: 148.0

Device (3) p4_2:
Rows total: 0.06766140239471044
Mem total: 574.7587689218734
Throughput: 148.0
--------------------------------------------------
